p tw 238 287
1 2
2 113
3 14
4 154
5 6
6 7
6 13
7 8
8 9
8 13
9 10
10 11
10 13
11 12
12 154
13 15
14 157
15 16
15 22
16 17
17 18
17 22
18 19
19 20
19 22
20 21
21 154
22 23
23 24
23 31
24 26
25 36
26 27
26 31
27 28
28 29
28 31
29 30
30 154
31 32
32 33
33 34
33 51
34 35
35 37
35 51
36 47
37 38
38 39
39 40
40 41
40 154
41 42
42 43
43 44
44 45
45 46
46 48
47 58
47 125
48 49
49 50
50 154
51 52
52 53
53 54
53 81
54 55
55 56
55 81
56 57
57 59
58 69
59 60
60 61
60 63
61 62
62 63
63 64
64 65
65 66
66 67
67 68
67 71
68 70
69 80
70 71
71 72
72 73
73 74
74 75
75 76
76 77
77 78
78 79
79 154
80 91
80 125
81 82
82 83
83 84
83 117
84 85
85 86
85 117
86 87
87 88
88 89
89 90
90 92
91 102
92 93
93 94
93 97
94 95
95 96
96 111
97 98
98 99
99 100
99 107
100 101
101 103
102 114
103 104
103 107
104 105
105 106
106 109
107 108
108 109
109 110
110 111
111 112
112 115
113 162
114 147
115 116
115 154
116 87
117 118
118 119
118 149
119 120
119 149
120 121
121 122
122 123
123 124
124 126
125 136
126 127
127 128
127 131
128 129
129 130
130 145
131 132
132 133
133 134
133 141
134 135
135 137
136 147
137 138
137 141
138 139
139 140
140 143
141 142
142 143
143 144
144 145
145 146
146 148
147 156
148 149
148 121
149 150
150 151
151 152
152 153
153 154
154 155
156 157
157 158
158 159
159 160
159 162
160 161
161 163
161 162
162 173
163 164
164 165
165 166
165 167
166 154
167 168
168 169
169 170
170 171
171 172
172 174
172 177
173 184
174 175
175 176
176 192
177 178
178 179
179 180
179 188
180 181
181 182
182 183
183 185
183 188
184 195
185 186
186 187
187 190
188 189
189 190
190 191
191 192
192 193
193 194
194 196
195 206
196 197
197 198
197 200
198 199
198 200
199 200
200 201
201 202
202 203
202 204
203 154
204 205
205 207
206 217
207 208
207 216
208 209
209 210
209 216
210 211
211 212
212 213
213 214
213 216
214 215
215 154
216 218
217 228
217 25
218 219
219 220
219 234
220 221
221 222
221 226
222 223
223 224
223 226
224 225
225 226
225 234
226 227
227 229
228 3
229 230
230 231
231 232
231 234
232 233
233 154
234 235
235 236
235 5
236 237
237 238
237 5
238 4
